(set-logic HORN)
(declare-datatypes ((Nat_627 0)) (((S_516 (projS_226 Nat_627)) (Z_2205 ))))
(declare-fun diseqNat_627 (Nat_627 Nat_627) Bool)
(declare-fun projS_227 (Nat_627 Nat_627) Bool)
(declare-fun isS_483 (Nat_627) Bool)
(declare-fun isZ_483 (Nat_627) Bool)
(assert (forall ((x_57371 Nat_627))
	(projS_227 x_57371 (S_516 x_57371))))
(assert (forall ((x_57374 Nat_627))
	(isS_483 (S_516 x_57374))))
(assert (isZ_483 Z_2205))
(assert (forall ((x_57375 Nat_627))
	(diseqNat_627 (S_516 x_57375) Z_2205)))
(assert (forall ((x_57376 Nat_627))
	(diseqNat_627 Z_2205 (S_516 x_57376))))
(assert (forall ((x_57377 Nat_627) (x_57378 Nat_627))
	(=> (diseqNat_627 x_57377 x_57378)
	    (diseqNat_627 (S_516 x_57377) (S_516 x_57378)))))
(declare-datatypes ((list_275 0)) (((nil_307 ) (cons_275 (head_550 Nat_627) (tail_550 list_275)))))
(declare-fun diseqlist_275 (list_275 list_275) Bool)
(declare-fun head_551 (Nat_627 list_275) Bool)
(declare-fun tail_551 (list_275 list_275) Bool)
(declare-fun isnil_307 (list_275) Bool)
(declare-fun iscons_275 (list_275) Bool)
(assert (forall ((x_57380 Nat_627) (x_57381 list_275))
	(head_551 x_57380 (cons_275 x_57380 x_57381))))
(assert (forall ((x_57380 Nat_627) (x_57381 list_275))
	(tail_551 x_57381 (cons_275 x_57380 x_57381))))
(assert (isnil_307 nil_307))
(assert (forall ((x_57383 Nat_627) (x_57384 list_275))
	(iscons_275 (cons_275 x_57383 x_57384))))
(assert (forall ((x_57385 Nat_627) (x_57386 list_275))
	(diseqlist_275 nil_307 (cons_275 x_57385 x_57386))))
(assert (forall ((x_57387 Nat_627) (x_57388 list_275))
	(diseqlist_275 (cons_275 x_57387 x_57388) nil_307)))
(assert (forall ((x_57389 Nat_627) (x_57390 list_275) (x_57391 Nat_627) (x_57392 list_275))
	(=> (diseqNat_627 x_57389 x_57391)
	    (diseqlist_275 (cons_275 x_57389 x_57390) (cons_275 x_57391 x_57392)))))
(assert (forall ((x_57389 Nat_627) (x_57390 list_275) (x_57391 Nat_627) (x_57392 list_275))
	(=> (diseqlist_275 x_57390 x_57392)
	    (diseqlist_275 (cons_275 x_57389 x_57390) (cons_275 x_57391 x_57392)))))
(declare-fun x_57363 (list_275 list_275 list_275) Bool)
(assert (forall ((x_57366 list_275) (z_2206 Nat_627) (xs_710 list_275) (y_2448 list_275))
	(=> (x_57363 x_57366 xs_710 y_2448)
	    (x_57363 (cons_275 z_2206 x_57366) (cons_275 z_2206 xs_710) y_2448))))
(assert (forall ((x_57367 list_275))
	(x_57363 x_57367 nil_307 x_57367)))
(assert (forall ((x_57368 list_275) (xs_711 list_275) (ys_202 list_275) (zs_71 list_275))
	(=>	(and true
			(diseqlist_275 ys_202 zs_71)
			(x_57363 x_57368 xs_711 ys_202)
			(x_57363 x_57368 xs_711 zs_71))
		false)))
(check-sat)
